80 7 25 41 55 67 77 86 92 96 98 97 93 87 78 68 56 42 26 9 82 53 28 95 54 18 71 27 72 19 58 94 23 47 66 84 91 1 99 79 61 38 13 65 24 62 5 30 39 43 34 15 76 33 69 89 2 81 46 3 21 22 6 49 63 50 10 20 88 17 90 14 73 57 70 8 51 16 85 29 4 0 59 45 37 12 48 11 60 35 40 83 44 36 75 31 52 64 32 74 

